
%FILE DATA:	Soccer Computational Problem for MiniZinc Models	%
%AUTHOR:	Jack Wall	%
%CONTACT:  	116397063@umail.ucc.ie			%
%LAST UPDATE:	03/03/2020, 12:08:21						%
%DESCRIPTION: 	28 games played with 14 games left				%


n=7; %number of teams

%Games to play
games=[|5,7|2,3|2,7|1,5|6,5|6,4|3,1|7,4|5,6|6,7|7,5|5,2|7,3|1,2|];

%Initial points
iPoints=[14,11,18,8,6,10,7];

%POSITION CONSTRAINTS
% [|teamID, operator, position|...]
% operators index:
%  1 for =  operator
%  2 for >  operator
%  3 for >= operator
%  4 for <  operator
%  5 for <= operator
positionConstraints=[|3,4,2|2,1,2|6,4,4|1,5,4|];